1000
[102,103,104,105,106,109,110,112,113,119,121,124,127,128,131,134,136,138,142,149,151,153,154,155,156,157,158,161,163,164,165,167,169,171,172,174,176,177,179,182,185,188,191,192,194,195,197,198,201,202,203,210,213,214,220,224,226,228,230,232,236,237,240,243,244,246,248,251,256,259,261,262,265,269,270,275,276,277,280,283,284,286,287,293,300,301,302,303,306,307,308,311,312,313,315,316,322,323,324,327,328,329,330,333,334,341,342,343,344,345,347,349,351,352,356,360,364,365,366,367,369,373,376,378,379,381,382,384,387,389,392,393,395,399,401,402,404,407,408,410,413,414,418,419,421,424,427,430,431,433,434,435,439,442,443,444,448,451,452,453,454,456,460,463,468,470,471,476,477,481,482,485,487,488,489,490,491,494,495,499,500,501,502,505,508,509,510,511,512,514,515,519,522,523,528,529,534,535,536,538,539,540,542,543,555,556,557,560,561,563,566,567,568,572,573,579,580,583,584,585,587,588,589,590,591,592,593,594,595,596,597,599,601,603,604,605,606,611,612,613,615,617,619,620,621,622,623,627,629,631,633,634,636,638,639,646,648,649,650,651,652,653,654,656,658,659,660,663,665,670,671,674,676,677,680,681,686,689,690,691,692,693,694,695,697,700]
[2,2,2,1,2,1,2,1,1,1,1,2,1,2,1,1,1,1,1,3,1,1,3,1,1,2,2,1,1,2,1,1,1,1,2,1,1,2,1,1,1,1,1,1,3,1,1,1,1,1,2,1,2,1,2,1,1,1,2,2,1,1,1,1,1,2,1,2,1,1,2,2,1,1,1,2,1,2,1,1,1,1,1,5,1,2,1,1,1,1,1,2,1,1,1,2,1,2,1,1,1,1,1,2,1,3,1,5,2,2,2,1,2,1,1,3,1,1,1,1,2,1,1,1,1,3,1,1,1,1,1,2,1,1,1,2,1,1,1,1,1,2,2,1,1,1,1,1,1,1,1,1,1,1,1,1,1,1,1,1,1,2,2,2,2,1,1,1,1,2,2,1,1,1,1,2,1,1,1,2,1,3,2,1,1,1,3,1,1,2,1,2,3,3,2,1,1,3,2,1,1,2,1,1,1,1,2,1,2,2,1,1,3,4,2,1,2,2,2,5,2,1,1,1,2,2,1,1,1,1,1,1,1,1,1,1,1,1,1,1,2,1,1,1,2,1,1,1,1,1,1,1,3,1,2,1,1,1,1,1,1,1,1,1,1,2,1,1,2,3,1,1,1,2,1,1,2,3,1,2,1,1,1,1,1,1]
